(set-info :smt-lib-version 2.6)
(set-logic UFLIA)
(set-info :source |Benchmarks from the paper: "Extending Sledgehammer with SMT Solvers" by Jasmin Blanchette, Sascha Bohme, and Lawrence C. Paulson, CADE 2011.  Translated to SMT2 by Andrew Reynolds and Morgan Deters.|)
(set-info :category "industrial")
(set-info :status unknown)
(declare-sort S1 0)
(declare-sort S2 0)
(declare-sort S3 0)
(declare-sort S4 0)
(declare-sort S5 0)
(declare-sort S6 0)
(declare-sort S7 0)
(declare-sort S8 0)
(declare-sort S9 0)
(declare-sort S10 0)
(declare-sort S11 0)
(declare-sort S12 0)
(declare-sort S13 0)
(declare-sort S14 0)
(declare-sort S15 0)
(declare-sort S16 0)
(declare-sort S17 0)
(declare-sort S18 0)
(declare-sort S19 0)
(declare-sort S20 0)
(declare-sort S21 0)
(declare-sort S22 0)
(declare-sort S23 0)
(declare-sort S24 0)
(declare-sort S25 0)
(declare-fun f1 () S1)
(declare-fun f2 () S1)
(declare-fun f3 (S2 S3) S1)
(declare-fun f4 (S4) S2)
(declare-fun f5 () S4)
(declare-fun f6 (S5 S6) S3)
(declare-fun f7 (S7 S8) S5)
(declare-fun f8 (S9 S6) S7)
(declare-fun f9 () S9)
(declare-fun f10 () S6)
(declare-fun f11 () S8)
(declare-fun f12 () S6)
(declare-fun f13 (S12 S11) S1)
(declare-fun f14 (S6 S10) S12)
(declare-fun f15 (S13 S4) S12)
(declare-fun f16 (S14 S11) S13)
(declare-fun f17 (S8) S14)
(declare-fun f18 (S2 S2) S1)
(declare-fun f19 (S3 S2) S1)
(declare-fun f20 (S16 S3) S4)
(declare-fun f21 (S17 S15) S16)
(declare-fun f22 () S17)
(declare-fun f23 (S18 Int) S4)
(declare-fun f24 () S18)
(declare-fun f25 () S16)
(declare-fun f26 (S19 S4) Int)
(declare-fun f27 () S19)
(declare-fun f28 () S8)
(declare-fun f29 (S20 S8) S8)
(declare-fun f30 (S21 S8) S20)
(declare-fun f31 () S21)
(declare-fun f32 (S22 S12) S21)
(declare-fun f33 () S22)
(declare-fun f34 (S23 S12) S20)
(declare-fun f35 () S23)
(declare-fun f36 (S24 S11) S12)
(declare-fun f37 (S8) S24)
(declare-fun f38 (S25 S8) S4)
(declare-fun f39 () S25)
(declare-fun f40 () S25)
(declare-fun f41 (S8) S1)
(assert (not (= f1 f2)))
(assert (not (= (= (f3 (f4 f5) (f6 (f7 (f8 f9 f10) f11) f12)) f1) (forall ((?v0 S10) (?v1 S11)) (=> (= (f13 (f14 f10 ?v0) ?v1) f1) (forall ((?v2 S11)) (=> (= (f13 (f15 (f16 (f17 f11) ?v1) f5) ?v2) f1) (= (f13 (f14 f12 ?v0) ?v2) f1))))))))
(assert (forall ((?v0 S6) (?v1 S8) (?v2 S6) (?v3 S6) (?v4 S8) (?v5 S6)) (= (= (f6 (f7 (f8 f9 ?v0) ?v1) ?v2) (f6 (f7 (f8 f9 ?v3) ?v4) ?v5)) (and (= ?v0 ?v3) (and (= ?v1 ?v4) (= ?v2 ?v5))))))
(assert (forall ((?v0 S2) (?v1 S2)) (= (= (f18 ?v0 ?v1) f1) (forall ((?v2 S4)) (=> (forall ((?v3 S3)) (=> (= (f19 ?v3 ?v0) f1) (= (f3 (f4 ?v2) ?v3) f1))) (forall ((?v3 S3)) (=> (= (f19 ?v3 ?v1) f1) (= (f3 (f4 ?v2) ?v3) f1))))))))
(assert (forall ((?v0 S15) (?v1 S6) (?v2 S8) (?v3 S6)) (= (f20 (f21 f22 ?v0) (f6 (f7 (f8 f9 ?v1) ?v2) ?v3)) (f23 f24 0))))
(assert (forall ((?v0 S6) (?v1 S8) (?v2 S6)) (= (f20 f25 (f6 (f7 (f8 f9 ?v0) ?v1) ?v2)) (f23 f24 0))))
(assert (forall ((?v0 S3)) (=> (forall ((?v1 S6) (?v2 S8) (?v3 S6)) (=> (= ?v0 (f6 (f7 (f8 f9 ?v1) ?v2) ?v3)) false)) false)))
(assert (forall ((?v0 S8) (?v1 S11) (?v2 S4) (?v3 S11)) (let ((?v_0 (f16 (f17 ?v0) ?v1))) (=> (= (f13 (f15 ?v_0 ?v2) ?v3) f1) (= (f13 (f15 ?v_0 (f23 f24 (+ (f26 f27 ?v2) 1))) ?v3) f1)))))
(assert (forall ((?v0 S8) (?v1 S11) (?v2 S4) (?v3 S11) (?v4 S4)) (let ((?v_0 (f16 (f17 ?v0) ?v1))) (=> (= (f13 (f15 ?v_0 ?v2) ?v3) f1) (=> (<= (f26 f27 ?v2) (f26 f27 ?v4)) (= (f13 (f15 ?v_0 ?v4) ?v3) f1))))))
(assert (forall ((?v0 S8) (?v1 S11) (?v2 S4) (?v3 S11) (?v4 S8) (?v5 S11) (?v6 S4) (?v7 S11)) (=> (= (f13 (f15 (f16 (f17 ?v0) ?v1) ?v2) ?v3) f1) (=> (= (f13 (f15 (f16 (f17 ?v4) ?v5) ?v6) ?v7) f1) (exists ((?v8 S4)) (and (= (f13 (f15 (f16 (f17 ?v0) ?v1) ?v8) ?v3) f1) (= (f13 (f15 (f16 (f17 ?v4) ?v5) ?v8) ?v7) f1)))))))
(assert (forall ((?v0 S11) (?v1 S4)) (= (f13 (f15 (f16 (f17 f28) ?v0) ?v1) ?v0) f1)))
(assert (forall ((?v0 S11) (?v1 S4) (?v2 S11)) (=> (= (f13 (f15 (f16 (f17 f28) ?v0) ?v1) ?v2) f1) (=> (=> (= ?v2 ?v0) false) false))))
(assert (forall ((?v0 S8) (?v1 S11) (?v2 S4) (?v3 S11) (?v4 S8) (?v5 S11)) (=> (= (f13 (f15 (f16 (f17 ?v0) ?v1) ?v2) ?v3) f1) (=> (= (f13 (f15 (f16 (f17 ?v4) ?v3) ?v2) ?v5) f1) (= (f13 (f15 (f16 (f17 (f29 (f30 f31 ?v0) ?v4)) ?v1) ?v2) ?v5) f1)))))
(assert (forall ((?v0 S8) (?v1 S8) (?v2 S11) (?v3 S4) (?v4 S11)) (=> (= (f13 (f15 (f16 (f17 (f29 (f30 f31 ?v0) ?v1)) ?v2) ?v3) ?v4) f1) (=> (forall ((?v5 S11)) (=> (= (f13 (f15 (f16 (f17 ?v0) ?v2) ?v3) ?v5) f1) (=> (= (f13 (f15 (f16 (f17 ?v1) ?v5) ?v3) ?v4) f1) false))) false))))
(assert (forall ((?v0 S8) (?v1 S8)) (not (= f28 (f29 (f30 f31 ?v0) ?v1)))))
(assert (forall ((?v0 S8) (?v1 S8)) (not (= (f29 (f30 f31 ?v0) ?v1) f28))))
(assert (forall ((?v0 S8) (?v1 S8) (?v2 S8) (?v3 S8)) (= (= (f29 (f30 f31 ?v0) ?v1) (f29 (f30 f31 ?v2) ?v3)) (and (= ?v0 ?v2) (= ?v1 ?v3)))))
(assert (forall ((?v0 S12) (?v1 S8) (?v2 S8) (?v3 S11) (?v4 S4) (?v5 S11)) (let ((?v_0 (= (f13 ?v0 ?v3) f1))) (=> (= (f13 (f15 (f16 (f17 (f29 (f30 (f32 f33 ?v0) ?v1) ?v2)) ?v3) ?v4) ?v5) f1) (=> (=> ?v_0 (=> (= (f13 (f15 (f16 (f17 ?v1) ?v3) ?v4) ?v5) f1) false)) (=> (=> (not ?v_0) (=> (= (f13 (f15 (f16 (f17 ?v2) ?v3) ?v4) ?v5) f1) false)) false))))))
(assert (forall ((?v0 S12) (?v1 S11) (?v2 S8) (?v3 S4) (?v4 S11) (?v5 S8)) (=> (= (f13 ?v0 ?v1) f1) (=> (= (f13 (f15 (f16 (f17 ?v2) ?v1) ?v3) ?v4) f1) (= (f13 (f15 (f16 (f17 (f29 (f30 (f32 f33 ?v0) ?v2) ?v5)) ?v1) ?v3) ?v4) f1)))))
(assert (forall ((?v0 S12) (?v1 S11) (?v2 S8) (?v3 S4) (?v4 S11) (?v5 S8)) (=> (not (= (f13 ?v0 ?v1) f1)) (=> (= (f13 (f15 (f16 (f17 ?v2) ?v1) ?v3) ?v4) f1) (= (f13 (f15 (f16 (f17 (f29 (f30 (f32 f33 ?v0) ?v5) ?v2)) ?v1) ?v3) ?v4) f1)))))
(assert (forall ((?v0 S12) (?v1 S11) (?v2 S8) (?v3 S4) (?v4 S11) (?v5 S11)) (let ((?v_0 (f17 (f29 (f34 f35 ?v0) ?v2)))) (=> (= (f13 ?v0 ?v1) f1) (=> (= (f13 (f15 (f16 (f17 ?v2) ?v1) ?v3) ?v4) f1) (=> (= (f13 (f15 (f16 ?v_0 ?v4) ?v3) ?v5) f1) (= (f13 (f15 (f16 ?v_0 ?v1) ?v3) ?v5) f1)))))))
(assert (forall ((?v0 S12) (?v1 S11) (?v2 S8) (?v3 S4)) (=> (not (= (f13 ?v0 ?v1) f1)) (= (f13 (f15 (f16 (f17 (f29 (f34 f35 ?v0) ?v2)) ?v1) ?v3) ?v1) f1))))
(assert (forall ((?v0 S11)) (= (f13 (f36 (f37 f28) ?v0) ?v0) f1)))
(assert (forall ((?v0 S11) (?v1 S11)) (=> (= (f13 (f36 (f37 f28) ?v0) ?v1) f1) (=> (=> (= ?v1 ?v0) false) false))))
(assert (forall ((?v0 S12) (?v1 S11) (?v2 S8)) (=> (not (= (f13 ?v0 ?v1) f1)) (= (f13 (f36 (f37 (f29 (f34 f35 ?v0) ?v2)) ?v1) ?v1) f1))))
(assert (forall ((?v0 S12) (?v1 S11) (?v2 S8) (?v3 S11) (?v4 S11)) (let ((?v_0 (f37 (f29 (f34 f35 ?v0) ?v2)))) (=> (= (f13 ?v0 ?v1) f1) (=> (= (f13 (f36 (f37 ?v2) ?v1) ?v3) f1) (=> (= (f13 (f36 ?v_0 ?v3) ?v4) f1) (= (f13 (f36 ?v_0 ?v1) ?v4) f1)))))))
(assert (forall ((?v0 S12) (?v1 S11) (?v2 S8) (?v3 S11) (?v4 S8)) (=> (not (= (f13 ?v0 ?v1) f1)) (=> (= (f13 (f36 (f37 ?v2) ?v1) ?v3) f1) (= (f13 (f36 (f37 (f29 (f30 (f32 f33 ?v0) ?v4) ?v2)) ?v1) ?v3) f1)))))
(assert (forall ((?v0 S12) (?v1 S11) (?v2 S8) (?v3 S11) (?v4 S8)) (=> (= (f13 ?v0 ?v1) f1) (=> (= (f13 (f36 (f37 ?v2) ?v1) ?v3) f1) (= (f13 (f36 (f37 (f29 (f30 (f32 f33 ?v0) ?v2) ?v4)) ?v1) ?v3) f1)))))
(assert (forall ((?v0 S12) (?v1 S8) (?v2 S8) (?v3 S11) (?v4 S11)) (let ((?v_0 (= (f13 ?v0 ?v3) f1))) (=> (= (f13 (f36 (f37 (f29 (f30 (f32 f33 ?v0) ?v1) ?v2)) ?v3) ?v4) f1) (=> (=> ?v_0 (=> (= (f13 (f36 (f37 ?v1) ?v3) ?v4) f1) false)) (=> (=> (not ?v_0) (=> (= (f13 (f36 (f37 ?v2) ?v3) ?v4) f1) false)) false))))))
(assert (forall ((?v0 S8) (?v1 S11) (?v2 S11) (?v3 S8) (?v4 S11)) (=> (= (f13 (f36 (f37 ?v0) ?v1) ?v2) f1) (=> (= (f13 (f36 (f37 ?v3) ?v2) ?v4) f1) (= (f13 (f36 (f37 (f29 (f30 f31 ?v0) ?v3)) ?v1) ?v4) f1)))))
(assert (forall ((?v0 S8) (?v1 S11) (?v2 S11) (?v3 S11)) (let ((?v_0 (f36 (f37 ?v0) ?v1))) (=> (= (f13 ?v_0 ?v2) f1) (=> (= (f13 ?v_0 ?v3) f1) (= ?v3 ?v2))))))
(assert (forall ((?v0 S12) (?v1 S8) (?v2 S8) (?v3 S12) (?v4 S8) (?v5 S8)) (= (= (f29 (f30 (f32 f33 ?v0) ?v1) ?v2) (f29 (f30 (f32 f33 ?v3) ?v4) ?v5)) (and (= ?v0 ?v3) (and (= ?v1 ?v4) (= ?v2 ?v5))))))
(assert (forall ((?v0 S12) (?v1 S8) (?v2 S12) (?v3 S8)) (= (= (f29 (f34 f35 ?v0) ?v1) (f29 (f34 f35 ?v2) ?v3)) (and (= ?v0 ?v2) (= ?v1 ?v3)))))
(assert (forall ((?v0 S12) (?v1 S8) (?v2 S8) (?v3 S12) (?v4 S8)) (not (= (f29 (f30 (f32 f33 ?v0) ?v1) ?v2) (f29 (f34 f35 ?v3) ?v4)))))
(assert (forall ((?v0 S12) (?v1 S8) (?v2 S12) (?v3 S8) (?v4 S8)) (not (= (f29 (f34 f35 ?v0) ?v1) (f29 (f30 (f32 f33 ?v2) ?v3) ?v4)))))
(assert (forall ((?v0 S12) (?v1 S8) (?v2 S8) (?v3 S8)) (not (= (f29 (f34 f35 ?v0) ?v1) (f29 (f30 f31 ?v2) ?v3)))))
(assert (forall ((?v0 S8) (?v1 S8) (?v2 S12) (?v3 S8)) (not (= (f29 (f30 f31 ?v0) ?v1) (f29 (f34 f35 ?v2) ?v3)))))
(assert (forall ((?v0 S12) (?v1 S8)) (not (= (f29 (f34 f35 ?v0) ?v1) f28))))
(assert (forall ((?v0 S12) (?v1 S8)) (not (= f28 (f29 (f34 f35 ?v0) ?v1)))))
(assert (forall ((?v0 S12) (?v1 S8) (?v2 S8) (?v3 S8) (?v4 S8)) (not (= (f29 (f30 (f32 f33 ?v0) ?v1) ?v2) (f29 (f30 f31 ?v3) ?v4)))))
(assert (forall ((?v0 S8) (?v1 S8) (?v2 S12) (?v3 S8) (?v4 S8)) (not (= (f29 (f30 f31 ?v0) ?v1) (f29 (f30 (f32 f33 ?v2) ?v3) ?v4)))))
(assert (forall ((?v0 S12) (?v1 S8) (?v2 S8)) (not (= (f29 (f30 (f32 f33 ?v0) ?v1) ?v2) f28))))
(assert (forall ((?v0 S12) (?v1 S8) (?v2 S8)) (not (= f28 (f29 (f30 (f32 f33 ?v0) ?v1) ?v2)))))
(assert (forall ((?v0 S8) (?v1 S11) (?v2 S11)) (= (= (f13 (f36 (f37 ?v0) ?v1) ?v2) f1) (exists ((?v3 S4)) (= (f13 (f15 (f16 (f17 ?v0) ?v1) ?v3) ?v2) f1)))))
(assert (forall ((?v0 S8) (?v1 S11) (?v2 S4) (?v3 S11)) (=> (= (f13 (f15 (f16 (f17 ?v0) ?v1) ?v2) ?v3) f1) (= (f13 (f36 (f37 ?v0) ?v1) ?v3) f1))))
(assert (forall ((?v0 S8) (?v1 S8) (?v2 S11) (?v3 S11)) (=> (= (f13 (f36 (f37 (f29 (f30 f31 ?v0) ?v1)) ?v2) ?v3) f1) (=> (forall ((?v4 S11)) (=> (= (f13 (f36 (f37 ?v0) ?v2) ?v4) f1) (=> (= (f13 (f36 (f37 ?v1) ?v4) ?v3) f1) false))) false))))
(assert (forall ((?v0 S12) (?v1 S8) (?v2 S11) (?v3 S11)) (=> (= (f13 (f36 (f37 (f29 (f34 f35 ?v0) ?v1)) ?v2) ?v3) f1) (=> (=> (= ?v3 ?v2) (=> (not (= (f13 ?v0 ?v2) f1)) false)) (=> (forall ((?v4 S11)) (=> (= (f13 ?v0 ?v2) f1) (=> (= (f13 (f36 (f37 ?v1) ?v2) ?v4) f1) (=> (= (f13 (f36 (f37 (f29 (f34 f35 ?v0) ?v1)) ?v4) ?v3) f1) false)))) false)))))
(assert (forall ((?v0 S12) (?v1 S8) (?v2 S11) (?v3 S4) (?v4 S11)) (=> (= (f13 (f15 (f16 (f17 (f29 (f34 f35 ?v0) ?v1)) ?v2) ?v3) ?v4) f1) (=> (=> (= ?v4 ?v2) (=> (not (= (f13 ?v0 ?v2) f1)) false)) (=> (forall ((?v5 S11)) (=> (= (f13 ?v0 ?v2) f1) (=> (= (f13 (f15 (f16 (f17 ?v1) ?v2) ?v3) ?v5) f1) (=> (= (f13 (f15 (f16 (f17 (f29 (f34 f35 ?v0) ?v1)) ?v5) ?v3) ?v4) f1) false)))) false)))))
(assert (forall ((?v0 S8) (?v1 S11) (?v2 S11)) (=> (= (f13 (f36 (f37 ?v0) ?v1) ?v2) f1) (exists ((?v3 S4)) (= (f13 (f15 (f16 (f17 ?v0) ?v1) ?v3) ?v2) f1)))))
(assert (= (f38 f39 f28) (f23 f24 0)))
(assert (forall ((?v0 S8) (?v1 S8)) (= (f38 f39 (f29 (f30 f31 ?v0) ?v1)) (f23 f24 (+ (+ (f26 f27 (f38 f39 ?v0)) (f26 f27 (f38 f39 ?v1))) (+ 0 1))))))
(assert (forall ((?v0 S12) (?v1 S8)) (= (f38 f39 (f29 (f34 f35 ?v0) ?v1)) (f23 f24 (+ (f26 f27 (f38 f39 ?v1)) (+ 0 1))))))
(assert (forall ((?v0 S12) (?v1 S8) (?v2 S8)) (= (f38 f39 (f29 (f30 (f32 f33 ?v0) ?v1) ?v2)) (f23 f24 (+ (+ (f26 f27 (f38 f39 ?v1)) (f26 f27 (f38 f39 ?v2))) (+ 0 1))))))
(assert (= (f38 f40 f28) (f23 f24 0)))
(assert (forall ((?v0 S8) (?v1 S8)) (= (f38 f40 (f29 (f30 f31 ?v0) ?v1)) (f23 f24 (+ (+ (f26 f27 (f38 f40 ?v0)) (f26 f27 (f38 f40 ?v1))) (+ 0 1))))))
(assert (forall ((?v0 S12) (?v1 S8) (?v2 S8)) (= (f38 f40 (f29 (f30 (f32 f33 ?v0) ?v1) ?v2)) (f23 f24 (+ (+ (f26 f27 (f38 f40 ?v1)) (f26 f27 (f38 f40 ?v2))) (+ 0 1))))))
(assert (forall ((?v0 S12) (?v1 S8)) (= (f38 f40 (f29 (f34 f35 ?v0) ?v1)) (f23 f24 (+ (f26 f27 (f38 f40 ?v1)) (+ 0 1))))))
(assert (=> (= (f41 f28) f1) (=> false false)))
(assert (forall ((?v0 S8) (?v1 S8)) (=> (= (f41 (f29 (f30 f31 ?v0) ?v1)) f1) (=> (=> (= (f41 ?v0) f1) (=> (= (f41 ?v1) f1) false)) false))))
(assert (forall ((?v0 S4)) (= (f23 f24 (f26 f27 ?v0)) ?v0)))
(assert (forall ((?v0 Int)) (=> (<= 0 ?v0) (= (f26 f27 (f23 f24 ?v0)) ?v0))))
(assert (forall ((?v0 Int)) (=> (< ?v0 0) (= (f26 f27 (f23 f24 ?v0)) 0))))
(check-sat)
(exit)
